100
32
5
31
19
16
18
9
11
19
17
20
28
18
19
24
9
19
29
29
17
28
1
18
17
25
31
5
21
21
6
32
23
31
17
11
8
2
11
18
1
19
26
5
16
20
31
6
1
29
8
31
6
22
28
2
17
22
28
18
12
21
19
21
19
6
9
25
25
1
24
3
11
11
30
17
23
12
31
14
23
24
17
1
20
25
18
2
11
18
31
9
19
32
2
8
21
19
30
20
23
18